[VALIDATOR STDOUT]
Type-checking move
...action passes type checking.
Type-checking pick
...action passes type checking.
Type-checking drop
...action passes type checking.
Checking plan: /home/jfan5/Safety-gen/runs/benchmark/optic/grippers_20260215_225302/grippers/optic_results/grippers-n1-r9-o7-s7001.plan
Plan to validate:

Plan size: 22
1:
(pick robot1 ball5 room5 lgripper1)
 
2:
(move robot1 room5 room9)
 
3:
(pick robot1 ball7 room9 rgripper1)
 
4:
(move robot1 room9 room1)
 
5:
(drop robot1 ball5 room1 lgripper1)
 
6:
(move robot1 room1 room3)
 
7:
(drop robot1 ball7 room3 rgripper1)
 
8:
(move robot1 room3 room6)
 
9:
(pick robot1 ball4 room6 lgripper1)
 
10:
(move robot1 room6 room9)
 
11:
(drop robot1 ball4 room9 lgripper1)
 
12:
(move robot1 room9 room7)
 
13:
(move robot1 room7 room4)
 
14:
(pick robot1 ball1 room4 lgripper1)
 
15:
(move robot1 room4 room7)
 
16:
(move robot1 room7 room3)
 
17:
(drop robot1 ball1 room3 lgripper1)
 
18:
(move robot1 room3 room7)
 
19:
(move robot1 room7 room1)
 
20:
(pick robot1 ball3 room1 lgripper1)
 
21:
(move robot1 room1 room7)
 
22:
(drop robot1 ball3 room7 lgripper1)
 

Plan Validation details
-----------------------

Checking next happening (time 1)
Deleting (at ball5 room5)
Deleting (free robot1 lgripper1)
Adding (carry robot1 ball5 lgripper1)

Checking next happening (time 2)
Deleting (at-robby robot1 room5)
Adding (at-robby robot1 room9)

Checking next happening (time 3)
Deleting (at ball7 room9)
Deleting (free robot1 rgripper1)
Adding (carry robot1 ball7 rgripper1)

Checking next happening (time 4)
Deleting (at-robby robot1 room9)
Adding (at-robby robot1 room1)

Checking next happening (time 5)
Deleting (carry robot1 ball5 lgripper1)
Adding (at ball5 room1)
Adding (free robot1 lgripper1)

Checking next happening (time 6)
Deleting (at-robby robot1 room1)
Adding (at-robby robot1 room3)

Checking next happening (time 7)
Deleting (carry robot1 ball7 rgripper1)
Adding (at ball7 room3)
Adding (free robot1 rgripper1)

Checking next happening (time 8)
Deleting (at-robby robot1 room3)
Adding (at-robby robot1 room6)

Checking next happening (time 9)
Deleting (at ball4 room6)
Deleting (free robot1 lgripper1)
Adding (carry robot1 ball4 lgripper1)

Checking next happening (time 10)
Deleting (at-robby robot1 room6)
Adding (at-robby robot1 room9)

Checking next happening (time 11)
Deleting (carry robot1 ball4 lgripper1)
Adding (at ball4 room9)
Adding (free robot1 lgripper1)

Checking next happening (time 12)
Deleting (at-robby robot1 room9)
Adding (at-robby robot1 room7)

Checking next happening (time 13)
Deleting (at-robby robot1 room7)
Adding (at-robby robot1 room4)

Checking next happening (time 14)
Deleting (at ball1 room4)
Deleting (free robot1 lgripper1)
Adding (carry robot1 ball1 lgripper1)

Checking next happening (time 15)
Deleting (at-robby robot1 room4)
Adding (at-robby robot1 room7)

Checking next happening (time 16)
Deleting (at-robby robot1 room7)
Adding (at-robby robot1 room3)

Checking next happening (time 17)
Deleting (carry robot1 ball1 lgripper1)
Adding (at ball1 room3)
Adding (free robot1 lgripper1)

Checking next happening (time 18)
Deleting (at-robby robot1 room3)
Adding (at-robby robot1 room7)

Checking next happening (time 19)
Deleting (at-robby robot1 room7)
Adding (at-robby robot1 room1)

Checking next happening (time 20)
Deleting (at ball3 room1)
Deleting (free robot1 lgripper1)
Adding (carry robot1 ball3 lgripper1)

Checking next happening (time 21)
Deleting (at-robby robot1 room1)
Adding (at-robby robot1 room7)

Checking next happening (time 22)
Deleting (carry robot1 ball3 lgripper1)
Adding (at ball3 room7)
Adding (free robot1 lgripper1)
Plan executed successfully - checking goal
Plan valid
Final value: 22 

Successful plans:
Value: 22
 /home/jfan5/Safety-gen/runs/benchmark/optic/grippers_20260215_225302/grippers/optic_results/grippers-n1-r9-o7-s7001.plan 22
